p cnf 134 480
-1 -2 -3 0
1 2 -3 0
-1 2 3 0
1 -2 3 0
-1 4 -5 0
1 -4 -5 0
-1 -4 5 0
1 4 5 0
6 -3 0
6 -5 0
3 5 -6 0
-8 -7 0
-8 5 0
7 -5 8 0
-9 6 0
-9 8 0
-6 -8 9 0
11 -12 -13 0
-11 12 -13 0
11 12 13 0
-11 -12 13 0
-5 -13 -14 0
5 13 -14 0
-5 13 14 0
5 -13 14 0
15 11 0
15 14 0
-11 -14 -15 0
16 -10 0
16 -15 0
10 15 -16 0
-18 -16 0
-18 17 0
16 -17 18 0
-19 -4 -20 0
19 4 -20 0
-19 4 20 0
19 -4 20 0
21 -1 0
21 11 0
1 -11 -21 0
-22 -20 0
-22 21 0
20 -21 22 0
-23 -22 0
-23 -12 0
22 12 23 0
-23 17 -24 0
23 -17 -24 0
-23 -17 24 0
23 17 24 0
-25 3 0
-25 12 0
-3 -12 25 0
24 25 -26 0
-24 -25 -26 0
24 -25 26 0
-24 25 26 0
27 21 0
27 -19 0
-21 19 -27 0
29 -27 0
29 28 0
27 -28 -29 0
29 -30 -31 0
-29 30 -31 0
29 30 31 0
-29 -30 31 0
31 11 -32 0
-31 -11 -32 0
31 -11 32 0
-31 11 32 0
-26 32 -33 0
26 -32 -33 0
-26 -32 33 0
26 32 33 0
-34 -18 0
-34 -33 0
18 33 34 0
-35 -9 0
-35 34 0
9 -34 35 0
36 -30 0
36 -14 0
30 14 -36 0
37 -29 0
37 36 0
29 -36 -37 0
-38 12 0
-38 28 0
-12 -28 38 0
39 -10 0
39 20 0
10 -20 -39 0
38 -39 -40 0
-38 39 -40 0
38 39 40 0
-38 -39 40 0
21 -1 -41 0
-21 1 -41 0
21 1 41 0
-21 -1 41 0
41 -22 -42 0
-41 22 -42 0
41 22 42 0
-41 -22 42 0
43 -40 0
43 -42 0
40 42 -43 0
44 37 0
44 -43 0
-37 43 -44 0
45 46 -47 0
-45 -46 -47 0
45 -46 47 0
-45 46 47 0
48 47 0
48 -20 0
-47 20 -48 0
49 -48 0
49 -36 0
48 36 -49 0
50 -44 0
50 49 0
44 -49 -50 0
-45 20 -51 0
45 -20 -51 0
-45 -20 51 0
45 20 51 0
52 39 0
52 -36 0
-39 36 -52 0
52 10 -53 0
-52 -10 -53 0
52 -10 53 0
-52 10 53 0
54 -51 0
54 53 0
51 -53 -54 0
54 -15 -55 0
-54 15 -55 0
54 15 55 0
-54 -15 55 0
56 -47 0
56 55 0
47 -55 -56 0
57 -21 0
57 -51 0
21 51 -57 0
-58 -24 0
-58 57 0
24 -57 58 0
-59 -56 0
-59 -58 0
56 58 59 0
42 -40 -60 0
-42 40 -60 0
42 40 60 0
-42 -40 60 0
61 -14 0
61 -39 0
14 39 -61 0
60 -61 -62 0
-60 61 -62 0
60 61 62 0
-60 -61 62 0
-4 -11 -63 0
4 11 -63 0
-4 11 63 0
4 -11 63 0
12 47 -64 0
-12 -47 -64 0
12 -47 64 0
-12 47 64 0
65 -27 0
65 64 0
27 -64 -65 0
63 65 -66 0
-63 -65 -66 0
63 -65 66 0
-63 65 66 0
-67 -62 0
-67 -66 0
62 66 67 0
16 64 -68 0
-16 -64 -68 0
16 -64 68 0
-16 64 68 0
-69 68 0
-69 -21 0
-68 21 69 0
70 69 0
70 10 0
-69 -10 -70 0
-71 -70 0
-71 -21 0
70 21 71 0
72 67 0
72 -71 0
-67 71 -72 0
-2 45 -73 0
2 -45 -73 0
-2 -45 73 0
2 45 73 0
-74 -27 0
-74 -41 0
27 41 74 0
20 -22 -75 0
-20 22 -75 0
20 22 75 0
-20 -22 75 0
-76 -75 0
-76 45 0
75 -45 76 0
-76 -20 -77 0
76 20 -77 0
-76 20 77 0
76 -20 77 0
-78 77 0
-78 51 0
-77 -51 78 0
-79 74 0
-79 78 0
-74 -78 79 0
-80 73 0
-80 -79 0
-73 79 80 0
-72 80 -81 0
72 -80 -81 0
-72 -80 81 0
72 80 81 0
82 -40 0
82 16 0
40 -16 -82 0
-83 81 0
-83 82 0
-81 -82 83 0
-59 -83 -84 0
59 83 -84 0
-59 83 84 0
59 -83 84 0
85 50 0
85 84 0
-50 -84 -85 0
86 35 0
86 -85 0
-35 85 -86 0
-87 11 0
-87 7 0
-11 -7 87 0
88 87 0
88 19 0
-87 -19 -88 0
88 15 -89 0
-88 -15 -89 0
88 -15 89 0
-88 15 89 0
90 57 0
90 -57 0
-91 -29 0
-91 -4 0
29 4 91 0
92 19 0
92 91 0
-19 -91 -92 0
-39 -12 -93 0
39 12 -93 0
-39 12 93 0
39 -12 93 0
-94 92 0
-94 93 0
-92 -93 94 0
95 90 0
95 -94 0
-90 94 -95 0
96 89 0
96 95 0
-89 -95 -96 0
-97 -86 0
-97 -96 0
86 96 97 0
54 -2 -98 0
-54 2 -98 0
54 2 98 0
-54 -2 98 0
-99 10 0
-99 47 0
-10 -47 99 0
100 -99 0
100 -53 0
99 53 -100 0
101 42 0
101 -77 0
-42 77 -101 0
-100 101 -102 0
100 -101 -102 0
-100 -101 102 0
100 101 102 0
-103 98 0
-103 -102 0
-98 102 103 0
104 -91 0
104 -19 0
91 19 -104 0
105 38 0
105 47 0
-38 -47 -105 0
106 -7 0
106 -99 0
7 99 -106 0
-106 10 -107 0
106 -10 -107 0
-106 -10 107 0
106 10 107 0
105 -107 -108 0
-105 107 -108 0
105 107 108 0
-105 -107 108 0
109 104 0
109 -108 0
-104 108 -109 0
-110 -77 0
-110 -77 0
77 110 0
-111 -52 0
-111 2 0
52 -2 111 0
-112 17 0
-112 3 0
-17 -3 112 0
-113 111 0
-113 112 0
-111 -112 113 0
114 -110 0
114 -113 0
110 113 -114 0
115 109 0
115 114 0
-109 -114 -115 0
116 68 0
116 -24 0
-68 24 -116 0
117 24 0
117 -17 0
-24 17 -117 0
22 52 -118 0
-22 -52 -118 0
22 -52 118 0
-22 52 118 0
-119 41 0
-119 -118 0
-41 118 119 0
-120 117 0
-120 119 0
-117 -119 120 0
-121 28 0
-121 -54 0
-28 54 121 0
10 5 -122 0
-10 -5 -122 0
10 -5 122 0
-10 5 122 0
123 17 0
123 122 0
-17 -122 -123 0
-124 123 0
-124 -17 0
-123 17 124 0
-125 121 0
-125 124 0
-121 -124 125 0
57 -23 -126 0
-57 23 -126 0
57 23 126 0
-57 -23 126 0
128 126 0
128 -127 0
-126 127 -128 0
-125 128 -129 0
125 -128 -129 0
-125 -128 129 0
125 128 129 0
120 129 -130 0
-120 -129 -130 0
120 -129 130 0
-120 129 130 0
131 -116 0
131 130 0
116 -130 -131 0
132 -115 0
132 131 0
115 -131 -132 0
-103 -132 -133 0
103 132 -133 0
-103 132 133 0
103 -132 133 0
-134 -97 0
-134 133 0
97 -133 134 0
40 -13 -111 0
118 14 -85 -49 -101 9 0
64 54 0
96 -10 0
69 128 127 0
-12 125 69 2 0
77 28 49 -58 75 -95 0
29 39 -65 -72 -130 0
-106 56 73 -48 0
-114 -15 -116 -121 39 0
131 -25 -62 0
125 102 0
5 -17 0
-25 -33 0
-2 -88 81 134 -110 82 0
74 -54 -134 -9 -65 0
130 -128 87 -6 0
-15 -116 76 -10 70 0
-101 -111 0
-25 29 -72 0
-42 17 -57 -73 110 0
-91 82 -72 84 70 0
-26 -58 -55 100 -86 0
-92 72 133 0
127 101 -120 41 52 39 0
123 128 0
35 6 85 0
-41 -105 -134 -121 -69 95 0
110 94 -98 -92 78 39 0
74 102 112 0
134 47 57 127 0
-42 -117 -65 0
-68 49 0
-35 115 -71 0
-115 46 97 120 5 0
23 56 35 112 45 0
-22 48 0
-121 -127 42 0
-39 -11 106 21 0
125 -37 -76 5 115 0
-133 -93 127 40 -23 0
62 117 -61 0
-132 -108 12 118 82 123 0
61 -5 52 -4 -18 26 0
-99 -130 -134 0
-83 45 0
122 -90 29 84 -131 0
-67 55 -60 -19 11 0
51 125 -50 31 0
123 124 59 91 27 0
-33 50 19 -71 0
-53 16 36 -100 96 0
28 -121 -34 0
73 -44 81 90 -110 0
104 -48 88 0
67 39 -68 0
-109 42 -133 12 0
126 -63 -56 124 58 0
-74 -11 -111 16 0
-14 72 -69 -6 0
2 -84 -39 0
-41 47 -44 120 -13 0
-130 94 0
-32 -67 0
-121 29 0
-107 15 -2 38 73 52 0
78 -102 -77 -114 0
-34 93 101 -4 -110 -86 0
-42 -3 -112 -96 30 0
133 89 0
39 -128 0
27 -78 -96 119 0
118 129 44 -30 0
-67 73 12 -122 22 0
75 80 -58 -77 -71 0
-55 -108 -106 0
100 -30 0
32 -52 0
-23 96 -68 -130 -94 -48 0
-7 76 -1 35 110 22 0
134 0
